data/solutions/recovery/degenerate/intermediate/binding/degenerate_intermediate_instance37/37.sol
Elapsed time: 0.04
Upper bound: 208365.0
Planning weighted value: 8409768033.0
C[0]=208365.0
C[1]=196519.0
C[2]=192314.0
C[3]=191673.0
C[4]=190661.0
C[5]=175141.0
C[6]=172733.0
C[7]=170602.0
C[8]=161746.0
C[9]=127628.0
C[10]=126761.0
C[11]=125736.0
C[12]=125535.0
C[13]=124594.0
C[14]=0.0
C[15]=0.0
y[0]=9
y[1]=7
y[2]=3
y[3]=4
y[4]=8
y[5]=11
y[6]=11
y[7]=6
y[8]=4
y[9]=12
y[10]=9
y[11]=13
y[12]=9
y[13]=2
y[14]=13
y[15]=13
y[16]=2
y[17]=6
y[18]=3
y[19]=7
y[20]=9
y[21]=3
y[22]=5
y[23]=6
y[24]=7
y[25]=0
y[26]=3
y[27]=2
y[28]=1
y[29]=8
y[30]=12
y[31]=4
y[32]=10
y[33]=11
y[34]=3
y[35]=1
y[36]=5
y[37]=6
y[38]=8
y[39]=10
y[40]=6
y[41]=9
y[42]=3
y[43]=9
y[44]=0
y[45]=5
y[46]=8
y[47]=13
y[48]=0
y[49]=10
y[50]=5
y[51]=4
y[52]=8
y[53]=12
y[54]=1
y[55]=1
y[56]=10
y[57]=7
y[58]=4
y[59]=1
y[60]=3
y[61]=7
y[62]=4
y[63]=5
y[64]=0
